11 atoms system
1.0
9.1023300000000020E+00 0.0000000000000000E+00 0.0000000000000000E+00
0.0000000000000000E+00 8.8833300000000008E+00 0.0000000000000000E+00
0.0000000000000000E+00 0.0000000000000000E+00 6.5186240000000000E+00
H   C 
6 5 
Cartesian
5.7529100000000000E+00 2.8024700000000009E+00 3.6105780000000003E+00
3.9951999999999996E+00 2.5000000000000004E+00 3.4719110000000000E+00
2.4999999999999996E+00 4.3156230000000004E+00 3.0718050000000003E+00
3.1360799999999998E+00 5.9798000000000009E+00 2.9105350000000003E+00
6.6023299999999994E+00 5.0214940000000006E+00 3.3962760000000003E+00
5.4821629999999990E+00 6.3833300000000008E+00 3.0950760000000002E+00
4.7775399999999992E+00 3.2541800000000007E+00 3.4494140000000000E+00
4.5002749999999994E+00 4.6041510000000008E+00 4.0186240000000000E+00
3.3918799999999996E+00 4.9368700000000008E+00 3.0785030000000000E+00
4.6558088999999994E+00 4.3973970000000007E+00 2.5000000000000000E+00
5.5648119999999999E+00 5.3107320000000007E+00 3.2501044500000003E+00
